(set-option :print-success true)
(set-option :produce-assignments true)
(set-option :produce-abducts true)
(set-option :incremental true)
(set-option :sygus-core-connective false)
(set-logic QF_UF)
(declare-sort Tindex_0 0)
(declare-fun op_2 () Tindex_0)
(declare-fun op_3 (Tindex_0 Tindex_0 ) Tindex_0)
(declare-fun op_1 (Tindex_0 ) Tindex_0)
(declare-fun op_0 () Tindex_0)
(get-abduct A (= (op_1 op_0) (op_3 (op_1 op_0) op_2)))
;(define-fun A () Bool (let ((_let_1 (op_1 op_0))) (= (op_3 _let_1 op_2) _let_1)))
